db/inputs/2574931572229365301369230531547225677.smt2
(set-logic QF_FP)
(declare-const x0 (_ FloatingPoint 11 53))
(declare-const x1 (_ FloatingPoint 11 53))
(declare-const x2 (_ FloatingPoint 11 53))
(assert (fp.eq (fp.neg (fp.sub RNE (fp.add RNE x1 x0) (fp.sub RNE x1 x1))) (fp.neg (fp.neg (fp.mul RNE x2 x2)))))
(assert (fp.leq (fp.add RNE (fp.div RNE (fp.mul RNE x1 x2) (fp.neg x2)) (fp.div RNE (fp.div RNE x2 x2) (fp.div RNE x1 x0))) (fp.add RNE (fp.mul RNE (fp.neg x0) (fp.mul RNE x0 x2)) (fp.mul RNE (fp.div RNE x1 x1) (fp.sub RNE x2 x2)))))
(check-sat)
