db/data/2574931572229365301369230531547225677.z3.out
-------------------
2500.125631899
